# From Oleg German, Evgeny Lakshtanov: "Minesweeper" without a computer
# http://arxiv.org/abs/0806.3480, page 4
param r := 5;
param c := 6;
param game: 1 2 3 4 5 6 :=
  1  . 1 . 1 . 1 
  2  2 . 2 . 1 . 
  3  . 3 . 2 . 1 
  4  1 . 3 . 2 . 
  5  . 1 . 2 . 1 
;
